(set-info :smt-lib-version 2.6)
(set-logic QF_LRA)
(set-info :source |
Fully parameterized specification and verification of a synchronizer   
circuit modeling metastability at various levels of refinement.     
A paper describing this specification, to be published in Designing     
Correct Circuits (DCC), 2006, is available from the authors.            

Geoffrey Brown, Indiana University <geobrown@cs.indiana.edu>
Lee Pike, Galois Connections, Inc. <leepike@galois.com>

Translated into CVC format by Leonardo de Moura.

This benchmark was automatically translated into SMT-LIB format from
CVC format using CVC Lite

|)
(set-info :category "industrial")
(set-info :status sat)
(declare-fun x_0 () Bool)
(declare-fun x_1 () Bool)
(declare-fun x_2 () Real)
(declare-fun x_3 () Real)
(declare-fun x_4 () Bool)
(declare-fun x_5 () Bool)
(declare-fun x_6 () Real)
(declare-fun x_7 () Real)
(declare-fun x_8 () Bool)
(declare-fun x_9 () Bool)
(declare-fun x_10 () Real)
(declare-fun x_11 () Real)
(declare-fun x_12 () Bool)
(declare-fun x_13 () Bool)
(declare-fun x_14 () Real)
(declare-fun x_15 () Real)
(declare-fun x_16 () Bool)
(declare-fun x_17 () Bool)
(declare-fun x_18 () Real)
(declare-fun x_19 () Real)
(declare-fun x_20 () Bool)
(declare-fun x_21 () Bool)
(declare-fun x_22 () Real)
(declare-fun x_23 () Real)
(declare-fun x_24 () Bool)
(declare-fun x_25 () Bool)
(declare-fun x_26 () Real)
(declare-fun x_27 () Real)
(declare-fun x_28 () Bool)
(declare-fun x_29 () Bool)
(declare-fun x_30 () Real)
(declare-fun x_31 () Real)
(declare-fun x_32 () Bool)
(declare-fun x_33 () Bool)
(declare-fun x_34 () Bool)
(declare-fun x_35 () Bool)
(declare-fun x_36 () Real)
(declare-fun x_37 () Real)
(declare-fun x_38 () Real)
(declare-fun x_39 () Real)
(declare-fun x_40 () Bool)
(declare-fun x_41 () Bool)
(declare-fun x_42 () Bool)
(declare-fun x_43 () Bool)
(declare-fun x_44 () Real)
(declare-fun x_45 () Real)
(declare-fun x_46 () Real)
(declare-fun x_47 () Real)
(declare-fun x_48 () Bool)
(declare-fun x_49 () Bool)
(declare-fun x_50 () Bool)
(declare-fun x_51 () Bool)
(declare-fun x_52 () Real)
(declare-fun x_53 () Real)
(declare-fun x_54 () Real)
(declare-fun x_55 () Real)
(declare-fun x_56 () Bool)
(declare-fun x_57 () Bool)
(declare-fun x_58 () Bool)
(declare-fun x_59 () Bool)
(declare-fun x_60 () Real)
(declare-fun x_61 () Real)
(declare-fun x_62 () Real)
(declare-fun x_63 () Real)
(declare-fun x_64 () Bool)
(declare-fun x_65 () Bool)
(declare-fun x_66 () Bool)
(declare-fun x_67 () Bool)
(declare-fun x_68 () Real)
(declare-fun x_69 () Real)
(declare-fun x_70 () Real)
(declare-fun x_71 () Real)
(declare-fun x_72 () Bool)
(declare-fun x_73 () Bool)
(declare-fun x_74 () Bool)
(declare-fun x_75 () Bool)
(declare-fun x_76 () Real)
(declare-fun x_77 () Real)
(declare-fun x_78 () Real)
(declare-fun x_79 () Real)
(declare-fun x_80 () Bool)
(declare-fun x_81 () Bool)
(declare-fun x_82 () Bool)
(declare-fun x_83 () Bool)
(declare-fun x_84 () Real)
(declare-fun x_85 () Real)
(declare-fun x_86 () Real)
(declare-fun x_87 () Real)
(declare-fun x_88 () Bool)
(declare-fun x_89 () Bool)
(declare-fun x_90 () Bool)
(declare-fun x_91 () Bool)
(declare-fun x_92 () Real)
(declare-fun x_93 () Real)
(declare-fun x_94 () Real)
(declare-fun x_95 () Real)
(declare-fun x_96 () Bool)
(declare-fun x_97 () Bool)
(declare-fun x_98 () Bool)
(declare-fun x_99 () Bool)
(declare-fun x_100 () Bool)
(declare-fun x_101 () Bool)
(declare-fun x_102 () Real)
(declare-fun x_103 () Real)
(declare-fun x_104 () Real)
(declare-fun x_105 () Real)
(declare-fun x_106 () Real)
(declare-fun x_107 () Real)
(declare-fun x_108 () Real)
(declare-fun x_109 () Real)
(declare-fun x_110 () Real)
(declare-fun x_111 () Real)
(declare-fun x_112 () Real)
(declare-fun x_113 () Real)
(declare-fun x_114 () Real)
(declare-fun x_115 () Real)
(declare-fun x_116 () Real)
(declare-fun x_117 () Real)
(declare-fun x_118 () Real)
(declare-fun x_119 () Real)
(declare-fun x_120 () Real)
(declare-fun x_121 () Real)
(declare-fun x_122 () Real)
(declare-fun x_123 () Real)
(declare-fun x_124 () Real)
(declare-fun x_125 () Real)
(declare-fun x_126 () Real)
(declare-fun x_127 () Real)
(declare-fun x_128 () Real)
(declare-fun x_129 () Real)
(declare-fun x_130 () Real)
(declare-fun x_131 () Real)
(declare-fun x_132 () Real)
(declare-fun x_133 () Real)
(declare-fun x_134 () Real)
(declare-fun x_135 () Real)
(declare-fun x_136 () Real)
(declare-fun x_137 () Real)
(declare-fun x_138 () Real)
(declare-fun x_139 () Real)
(declare-fun x_140 () Real)
(declare-fun x_141 () Real)
(declare-fun x_142 () Real)
(declare-fun x_143 () Real)
(declare-fun x_144 () Real)
(declare-fun x_145 () Real)
(declare-fun x_146 () Real)
(declare-fun x_147 () Real)
(declare-fun x_148 () Real)
(declare-fun x_149 () Real)
(declare-fun x_150 () Real)
(declare-fun x_151 () Real)
(declare-fun x_152 () Real)
(declare-fun x_153 () Real)
(declare-fun x_154 () Real)
(declare-fun x_155 () Real)
(declare-fun x_156 () Real)
(declare-fun x_157 () Real)
(declare-fun x_158 () Real)
(declare-fun x_159 () Real)
(declare-fun x_160 () Real)
(assert (let ((?v_105 (= x_45 x_37)) (?v_106 (= x_38 x_46)) (?v_107 (= x_47 x_39)) (?v_103 (= x_36 x_44))) (let ((?v_108 (not ?v_103)) (?v_111 (= x_106 x_107)) (?v_99 (= x_40 x_32)) (?v_100 (= x_7 x_3)) (?v_104 (ite (<= x_38 x_36) x_38 x_36)) (?v_98 (ite (<= x_36 x_38) x_36 x_38)) (?v_91 (= x_53 x_45)) (?v_92 (= x_46 x_54)) (?v_93 (= x_55 x_47)) (?v_89 (= x_44 x_52))) (let ((?v_94 (not ?v_89)) (?v_97 (= x_117 x_106)) (?v_85 (= x_48 x_40)) (?v_86 (= x_11 x_7)) (?v_90 (ite (<= x_46 x_44) x_46 x_44)) (?v_84 (ite (<= x_44 x_46) x_44 x_46)) (?v_77 (= x_61 x_53)) (?v_78 (= x_54 x_62)) (?v_79 (= x_63 x_55)) (?v_75 (= x_52 x_60))) (let ((?v_80 (not ?v_75)) (?v_83 (= x_123 x_117)) (?v_71 (= x_56 x_48)) (?v_72 (= x_15 x_11)) (?v_76 (ite (<= x_54 x_52) x_54 x_52)) (?v_70 (ite (<= x_52 x_54) x_52 x_54)) (?v_63 (= x_69 x_61)) (?v_64 (= x_62 x_70)) (?v_65 (= x_71 x_63)) (?v_61 (= x_60 x_68))) (let ((?v_66 (not ?v_61)) (?v_69 (= x_129 x_123)) (?v_57 (= x_64 x_56)) (?v_58 (= x_19 x_15)) (?v_62 (ite (<= x_62 x_60) x_62 x_60)) (?v_56 (ite (<= x_60 x_62) x_60 x_62)) (?v_49 (= x_77 x_69)) (?v_50 (= x_70 x_78)) (?v_51 (= x_79 x_71)) (?v_47 (= x_68 x_76))) (let ((?v_52 (not ?v_47)) (?v_55 (= x_135 x_129)) (?v_43 (= x_72 x_64)) (?v_44 (= x_23 x_19)) (?v_48 (ite (<= x_70 x_68) x_70 x_68)) (?v_42 (ite (<= x_68 x_70) x_68 x_70)) (?v_35 (= x_85 x_77)) (?v_36 (= x_78 x_86)) (?v_37 (= x_87 x_79)) (?v_33 (= x_76 x_84))) (let ((?v_38 (not ?v_33)) (?v_41 (= x_141 x_135)) (?v_29 (= x_80 x_72)) (?v_30 (= x_27 x_23)) (?v_34 (ite (<= x_78 x_76) x_78 x_76)) (?v_28 (ite (<= x_76 x_78) x_76 x_78)) (?v_21 (= x_93 x_85)) (?v_22 (= x_86 x_94)) (?v_23 (= x_95 x_87)) (?v_19 (= x_84 x_92))) (let ((?v_24 (not ?v_19)) (?v_27 (= x_147 x_141)) (?v_15 (= x_88 x_80)) (?v_16 (= x_31 x_27)) (?v_20 (ite (<= x_86 x_84) x_86 x_84)) (?v_14 (ite (<= x_84 x_86) x_84 x_86)) (?v_7 (= x_103 x_93)) (?v_8 (= x_94 x_104)) (?v_9 (= x_105 x_95)) (?v_5 (= x_92 x_102))) (let ((?v_10 (not ?v_5)) (?v_13 (= x_153 x_147)) (?v_1 (= x_96 x_88)) (?v_2 (= x_154 x_31)) (?v_6 (ite (<= x_94 x_92) x_94 x_92)) (?v_0 (ite (<= x_92 x_94) x_92 x_94)) (?v_112 (xor x_98 x_99)) (?v_3 (not x_88)) (?v_17 (not x_80)) (?v_31 (not x_72)) (?v_45 (not x_64)) (?v_59 (not x_56)) (?v_73 (not x_48)) (?v_87 (not x_40)) (?v_101 (not x_32)) (?v_4 (= x_99 x_29)) (?v_12 (= x_31 x_154)) (?v_18 (= x_29 x_25)) (?v_26 (= x_27 x_31)) (?v_32 (= x_25 x_21)) (?v_40 (= x_23 x_27)) (?v_46 (= x_21 x_17)) (?v_54 (= x_19 x_23)) (?v_60 (= x_17 x_13)) (?v_68 (= x_15 x_19)) (?v_74 (= x_13 x_9)) (?v_82 (= x_11 x_15)) (?v_88 (= x_9 x_5)) (?v_96 (= x_7 x_11)) (?v_102 (= x_5 x_1)) (?v_110 (= x_3 x_7))) (let ((?v_11 (+ ?v_6 x_110)) (?v_25 (+ ?v_20 x_110)) (?v_39 (+ ?v_34 x_110)) (?v_53 (+ ?v_48 x_110)) (?v_67 (+ ?v_62 x_110)) (?v_81 (+ ?v_76 x_110)) (?v_95 (+ ?v_90 x_110)) (?v_109 (+ ?v_104 x_110))) (and (and (and (and (and (and (and (and (and (and (and (and (and (and (and (and (and (and (and (and (and (and (and (and (and (and (and (and (and (and (and (and (and (and (and (and (and (and (and (and (and (and (and (and (and (and (and (and (and (and (and (and (and (and (and (and (and (and (> x_108 0) (> x_109 0)) (>= x_110 0)) (< x_110 x_108)) (< x_110 x_109)) (>= x_115 0)) (< x_115 x_108)) (< x_115 x_109)) (or (= x_28 x_29) (= x_30 x_31))) (or (= x_24 x_25) (= x_26 x_27))) (or (= x_20 x_21) (= x_22 x_23))) (or (= x_16 x_17) (= x_18 x_19))) (or (= x_12 x_13) (= x_14 x_15))) (or (= x_8 x_9) (= x_10 x_11))) (or (= x_4 x_5) (= x_6 x_7))) (or (= x_0 x_1) (= x_2 x_3))) (<= (+ (+ (+ (+ (+ (+ (+ (ite (xor x_96 x_97) 1 0) (ite (xor x_97 x_98) 1 0)) (ite ?v_112 1 0)) (ite (xor x_99 x_100) 1 0)) (ite (xor x_100 x_101) 1 0)) (ite (xor x_101 (not x_96)) 1 0)) (ite (and (= x_96 x_97) (< x_102 x_103)) 1 0)) (ite (and (= x_99 x_100) (< x_104 x_105)) 1 0)) 1)) (<= (+ (+ (+ (+ (+ (+ (+ (ite (xor x_88 x_89) 1 0) (ite (xor x_89 x_28) 1 0)) (ite (xor x_28 x_29) 1 0)) (ite (xor x_29 x_90) 1 0)) (ite (xor x_90 x_91) 1 0)) (ite (xor x_91 ?v_3) 1 0)) (ite (and (= x_88 x_89) (< x_92 x_93)) 1 0)) (ite (and (= x_29 x_90) (< x_94 x_95)) 1 0)) 1)) (<= (+ (+ (+ (+ (+ (+ (+ (ite (xor x_80 x_81) 1 0) (ite (xor x_81 x_24) 1 0)) (ite (xor x_24 x_25) 1 0)) (ite (xor x_25 x_82) 1 0)) (ite (xor x_82 x_83) 1 0)) (ite (xor x_83 ?v_17) 1 0)) (ite (and (= x_80 x_81) (< x_84 x_85)) 1 0)) (ite (and (= x_25 x_82) (< x_86 x_87)) 1 0)) 1)) (<= (+ (+ (+ (+ (+ (+ (+ (ite (xor x_72 x_73) 1 0) (ite (xor x_73 x_20) 1 0)) (ite (xor x_20 x_21) 1 0)) (ite (xor x_21 x_74) 1 0)) (ite (xor x_74 x_75) 1 0)) (ite (xor x_75 ?v_31) 1 0)) (ite (and (= x_72 x_73) (< x_76 x_77)) 1 0)) (ite (and (= x_21 x_74) (< x_78 x_79)) 1 0)) 1)) (<= (+ (+ (+ (+ (+ (+ (+ (ite (xor x_64 x_65) 1 0) (ite (xor x_65 x_16) 1 0)) (ite (xor x_16 x_17) 1 0)) (ite (xor x_17 x_66) 1 0)) (ite (xor x_66 x_67) 1 0)) (ite (xor x_67 ?v_45) 1 0)) (ite (and (= x_64 x_65) (< x_68 x_69)) 1 0)) (ite (and (= x_17 x_66) (< x_70 x_71)) 1 0)) 1)) (<= (+ (+ (+ (+ (+ (+ (+ (ite (xor x_56 x_57) 1 0) (ite (xor x_57 x_12) 1 0)) (ite (xor x_12 x_13) 1 0)) (ite (xor x_13 x_58) 1 0)) (ite (xor x_58 x_59) 1 0)) (ite (xor x_59 ?v_59) 1 0)) (ite (and (= x_56 x_57) (< x_60 x_61)) 1 0)) (ite (and (= x_13 x_58) (< x_62 x_63)) 1 0)) 1)) (<= (+ (+ (+ (+ (+ (+ (+ (ite (xor x_48 x_49) 1 0) (ite (xor x_49 x_8) 1 0)) (ite (xor x_8 x_9) 1 0)) (ite (xor x_9 x_50) 1 0)) (ite (xor x_50 x_51) 1 0)) (ite (xor x_51 ?v_73) 1 0)) (ite (and (= x_48 x_49) (< x_52 x_53)) 1 0)) (ite (and (= x_9 x_50) (< x_54 x_55)) 1 0)) 1)) (<= (+ (+ (+ (+ (+ (+ (+ (ite (xor x_40 x_41) 1 0) (ite (xor x_41 x_4) 1 0)) (ite (xor x_4 x_5) 1 0)) (ite (xor x_5 x_42) 1 0)) (ite (xor x_42 x_43) 1 0)) (ite (xor x_43 ?v_87) 1 0)) (ite (and (= x_40 x_41) (< x_44 x_45)) 1 0)) (ite (and (= x_5 x_42) (< x_46 x_47)) 1 0)) 1)) (<= (+ (+ (+ (+ (+ (+ (+ (ite (xor x_32 x_33) 1 0) (ite (xor x_33 x_0) 1 0)) (ite (xor x_0 x_1) 1 0)) (ite (xor x_1 x_34) 1 0)) (ite (xor x_34 x_35) 1 0)) (ite (xor x_35 ?v_101) 1 0)) (ite (and (= x_32 x_33) (< x_36 x_37)) 1 0)) (ite (and (= x_1 x_34) (< x_38 x_39)) 1 0)) 1)) (or (and (and (and (and (and (and (and (and (and (= x_155 0) (= x_98 x_89)) (= ?v_0 x_92)) (<= (+ ?v_0 x_108) x_102)) (or ?v_4 (= x_99 x_28))) (= x_100 x_90)) (= x_101 x_91)) (= x_104 x_94)) ?v_1) ?v_2) (and (and (and (and (and (and (and (and (and (= x_155 1) (= x_101 x_90)) (= ?v_0 x_94)) (<= (+ ?v_0 x_109) x_104)) (or (and (and (= x_156 0) ?v_1) ?v_2) (and (and (= x_156 1) (= x_88 x_91)) (= x_96 ?v_3)))) (= x_97 x_89)) (= x_98 x_28)) (= x_157 x_30)) (= x_102 x_92)) ?v_4))) (or (or (and (and (and (= x_158 0) ?v_10) (or (not (<= x_93 ?v_6)) (= x_97 x_88))) ?v_7) (and (and (and (= x_158 1) ?v_5) (xor x_88 x_96)) (= x_103 ?v_11))) (and (and (and (= x_158 2) ?v_5) (= x_88 x_96)) ?v_7))) (or (or (and (and (and (= x_159 0) (not ?v_8)) (or (not (<= x_95 ?v_0)) (= x_100 x_29))) ?v_9) (and (and (and (= x_159 1) ?v_8) (xor x_29 x_99)) (= x_105 (+ ?v_0 x_115)))) (and (and (and (= x_159 2) ?v_8) (= x_29 x_99)) ?v_9))) (or (or (and (and (and (= x_160 0) ?v_10) (or (not (<= x_147 ?v_6)) (= x_157 x_31))) ?v_13) (and (and (and (= x_160 1) ?v_5) (not ?v_12)) (= x_153 ?v_11))) (and (and (and (= x_160 2) ?v_5) ?v_12) ?v_13))) (or (and (and (and (and (and (and (and (and (and (= x_148 0) (= x_28 x_81)) (= ?v_14 x_84)) (<= (+ ?v_14 x_108) x_92)) (or ?v_18 (= x_29 x_24))) (= x_90 x_82)) (= x_91 x_83)) (= x_94 x_86)) ?v_15) ?v_16) (and (and (and (and (and (and (and (and (and (= x_148 1) (= x_91 x_82)) (= ?v_14 x_86)) (<= (+ ?v_14 x_109) x_94)) (or (and (and (= x_149 0) ?v_15) ?v_16) (and (and (= x_149 1) (= x_80 x_83)) (= x_88 ?v_17)))) (= x_89 x_81)) (= x_28 x_24)) (= x_30 x_26)) (= x_92 x_84)) ?v_18))) (or (or (and (and (and (= x_150 0) ?v_24) (or (not (<= x_85 ?v_20)) (= x_89 x_80))) ?v_21) (and (and (and (= x_150 1) ?v_19) (xor x_80 x_88)) (= x_93 ?v_25))) (and (and (and (= x_150 2) ?v_19) (= x_80 x_88)) ?v_21))) (or (or (and (and (and (= x_151 0) (not ?v_22)) (or (not (<= x_87 ?v_14)) (= x_90 x_25))) ?v_23) (and (and (and (= x_151 1) ?v_22) (xor x_25 x_29)) (= x_95 (+ ?v_14 x_115)))) (and (and (and (= x_151 2) ?v_22) (= x_25 x_29)) ?v_23))) (or (or (and (and (and (= x_152 0) ?v_24) (or (not (<= x_141 ?v_20)) (= x_30 x_27))) ?v_27) (and (and (and (= x_152 1) ?v_19) (not ?v_26)) (= x_147 ?v_25))) (and (and (and (= x_152 2) ?v_19) ?v_26) ?v_27))) (or (and (and (and (and (and (and (and (and (and (= x_142 0) (= x_24 x_73)) (= ?v_28 x_76)) (<= (+ ?v_28 x_108) x_84)) (or ?v_32 (= x_25 x_20))) (= x_82 x_74)) (= x_83 x_75)) (= x_86 x_78)) ?v_29) ?v_30) (and (and (and (and (and (and (and (and (and (= x_142 1) (= x_83 x_74)) (= ?v_28 x_78)) (<= (+ ?v_28 x_109) x_86)) (or (and (and (= x_143 0) ?v_29) ?v_30) (and (and (= x_143 1) (= x_72 x_75)) (= x_80 ?v_31)))) (= x_81 x_73)) (= x_24 x_20)) (= x_26 x_22)) (= x_84 x_76)) ?v_32))) (or (or (and (and (and (= x_144 0) ?v_38) (or (not (<= x_77 ?v_34)) (= x_81 x_72))) ?v_35) (and (and (and (= x_144 1) ?v_33) (xor x_72 x_80)) (= x_85 ?v_39))) (and (and (and (= x_144 2) ?v_33) (= x_72 x_80)) ?v_35))) (or (or (and (and (and (= x_145 0) (not ?v_36)) (or (not (<= x_79 ?v_28)) (= x_82 x_21))) ?v_37) (and (and (and (= x_145 1) ?v_36) (xor x_21 x_25)) (= x_87 (+ ?v_28 x_115)))) (and (and (and (= x_145 2) ?v_36) (= x_21 x_25)) ?v_37))) (or (or (and (and (and (= x_146 0) ?v_38) (or (not (<= x_135 ?v_34)) (= x_26 x_23))) ?v_41) (and (and (and (= x_146 1) ?v_33) (not ?v_40)) (= x_141 ?v_39))) (and (and (and (= x_146 2) ?v_33) ?v_40) ?v_41))) (or (and (and (and (and (and (and (and (and (and (= x_136 0) (= x_20 x_65)) (= ?v_42 x_68)) (<= (+ ?v_42 x_108) x_76)) (or ?v_46 (= x_21 x_16))) (= x_74 x_66)) (= x_75 x_67)) (= x_78 x_70)) ?v_43) ?v_44) (and (and (and (and (and (and (and (and (and (= x_136 1) (= x_75 x_66)) (= ?v_42 x_70)) (<= (+ ?v_42 x_109) x_78)) (or (and (and (= x_137 0) ?v_43) ?v_44) (and (and (= x_137 1) (= x_64 x_67)) (= x_72 ?v_45)))) (= x_73 x_65)) (= x_20 x_16)) (= x_22 x_18)) (= x_76 x_68)) ?v_46))) (or (or (and (and (and (= x_138 0) ?v_52) (or (not (<= x_69 ?v_48)) (= x_73 x_64))) ?v_49) (and (and (and (= x_138 1) ?v_47) (xor x_64 x_72)) (= x_77 ?v_53))) (and (and (and (= x_138 2) ?v_47) (= x_64 x_72)) ?v_49))) (or (or (and (and (and (= x_139 0) (not ?v_50)) (or (not (<= x_71 ?v_42)) (= x_74 x_17))) ?v_51) (and (and (and (= x_139 1) ?v_50) (xor x_17 x_21)) (= x_79 (+ ?v_42 x_115)))) (and (and (and (= x_139 2) ?v_50) (= x_17 x_21)) ?v_51))) (or (or (and (and (and (= x_140 0) ?v_52) (or (not (<= x_129 ?v_48)) (= x_22 x_19))) ?v_55) (and (and (and (= x_140 1) ?v_47) (not ?v_54)) (= x_135 ?v_53))) (and (and (and (= x_140 2) ?v_47) ?v_54) ?v_55))) (or (and (and (and (and (and (and (and (and (and (= x_130 0) (= x_16 x_57)) (= ?v_56 x_60)) (<= (+ ?v_56 x_108) x_68)) (or ?v_60 (= x_17 x_12))) (= x_66 x_58)) (= x_67 x_59)) (= x_70 x_62)) ?v_57) ?v_58) (and (and (and (and (and (and (and (and (and (= x_130 1) (= x_67 x_58)) (= ?v_56 x_62)) (<= (+ ?v_56 x_109) x_70)) (or (and (and (= x_131 0) ?v_57) ?v_58) (and (and (= x_131 1) (= x_56 x_59)) (= x_64 ?v_59)))) (= x_65 x_57)) (= x_16 x_12)) (= x_18 x_14)) (= x_68 x_60)) ?v_60))) (or (or (and (and (and (= x_132 0) ?v_66) (or (not (<= x_61 ?v_62)) (= x_65 x_56))) ?v_63) (and (and (and (= x_132 1) ?v_61) (xor x_56 x_64)) (= x_69 ?v_67))) (and (and (and (= x_132 2) ?v_61) (= x_56 x_64)) ?v_63))) (or (or (and (and (and (= x_133 0) (not ?v_64)) (or (not (<= x_63 ?v_56)) (= x_66 x_13))) ?v_65) (and (and (and (= x_133 1) ?v_64) (xor x_13 x_17)) (= x_71 (+ ?v_56 x_115)))) (and (and (and (= x_133 2) ?v_64) (= x_13 x_17)) ?v_65))) (or (or (and (and (and (= x_134 0) ?v_66) (or (not (<= x_123 ?v_62)) (= x_18 x_15))) ?v_69) (and (and (and (= x_134 1) ?v_61) (not ?v_68)) (= x_129 ?v_67))) (and (and (and (= x_134 2) ?v_61) ?v_68) ?v_69))) (or (and (and (and (and (and (and (and (and (and (= x_124 0) (= x_12 x_49)) (= ?v_70 x_52)) (<= (+ ?v_70 x_108) x_60)) (or ?v_74 (= x_13 x_8))) (= x_58 x_50)) (= x_59 x_51)) (= x_62 x_54)) ?v_71) ?v_72) (and (and (and (and (and (and (and (and (and (= x_124 1) (= x_59 x_50)) (= ?v_70 x_54)) (<= (+ ?v_70 x_109) x_62)) (or (and (and (= x_125 0) ?v_71) ?v_72) (and (and (= x_125 1) (= x_48 x_51)) (= x_56 ?v_73)))) (= x_57 x_49)) (= x_12 x_8)) (= x_14 x_10)) (= x_60 x_52)) ?v_74))) (or (or (and (and (and (= x_126 0) ?v_80) (or (not (<= x_53 ?v_76)) (= x_57 x_48))) ?v_77) (and (and (and (= x_126 1) ?v_75) (xor x_48 x_56)) (= x_61 ?v_81))) (and (and (and (= x_126 2) ?v_75) (= x_48 x_56)) ?v_77))) (or (or (and (and (and (= x_127 0) (not ?v_78)) (or (not (<= x_55 ?v_70)) (= x_58 x_9))) ?v_79) (and (and (and (= x_127 1) ?v_78) (xor x_9 x_13)) (= x_63 (+ ?v_70 x_115)))) (and (and (and (= x_127 2) ?v_78) (= x_9 x_13)) ?v_79))) (or (or (and (and (and (= x_128 0) ?v_80) (or (not (<= x_117 ?v_76)) (= x_14 x_11))) ?v_83) (and (and (and (= x_128 1) ?v_75) (not ?v_82)) (= x_123 ?v_81))) (and (and (and (= x_128 2) ?v_75) ?v_82) ?v_83))) (or (and (and (and (and (and (and (and (and (and (= x_118 0) (= x_8 x_41)) (= ?v_84 x_44)) (<= (+ ?v_84 x_108) x_52)) (or ?v_88 (= x_9 x_4))) (= x_50 x_42)) (= x_51 x_43)) (= x_54 x_46)) ?v_85) ?v_86) (and (and (and (and (and (and (and (and (and (= x_118 1) (= x_51 x_42)) (= ?v_84 x_46)) (<= (+ ?v_84 x_109) x_54)) (or (and (and (= x_119 0) ?v_85) ?v_86) (and (and (= x_119 1) (= x_40 x_43)) (= x_48 ?v_87)))) (= x_49 x_41)) (= x_8 x_4)) (= x_10 x_6)) (= x_52 x_44)) ?v_88))) (or (or (and (and (and (= x_120 0) ?v_94) (or (not (<= x_45 ?v_90)) (= x_49 x_40))) ?v_91) (and (and (and (= x_120 1) ?v_89) (xor x_40 x_48)) (= x_53 ?v_95))) (and (and (and (= x_120 2) ?v_89) (= x_40 x_48)) ?v_91))) (or (or (and (and (and (= x_121 0) (not ?v_92)) (or (not (<= x_47 ?v_84)) (= x_50 x_5))) ?v_93) (and (and (and (= x_121 1) ?v_92) (xor x_5 x_9)) (= x_55 (+ ?v_84 x_115)))) (and (and (and (= x_121 2) ?v_92) (= x_5 x_9)) ?v_93))) (or (or (and (and (and (= x_122 0) ?v_94) (or (not (<= x_106 ?v_90)) (= x_10 x_7))) ?v_97) (and (and (and (= x_122 1) ?v_89) (not ?v_96)) (= x_117 ?v_95))) (and (and (and (= x_122 2) ?v_89) ?v_96) ?v_97))) (or (and (and (and (and (and (and (and (and (and (= x_111 0) (= x_4 x_33)) (= ?v_98 x_36)) (<= (+ ?v_98 x_108) x_44)) (or ?v_102 (= x_5 x_0))) (= x_42 x_34)) (= x_43 x_35)) (= x_46 x_38)) ?v_99) ?v_100) (and (and (and (and (and (and (and (and (and (= x_111 1) (= x_43 x_34)) (= ?v_98 x_38)) (<= (+ ?v_98 x_109) x_46)) (or (and (and (= x_112 0) ?v_99) ?v_100) (and (and (= x_112 1) (= x_32 x_35)) (= x_40 ?v_101)))) (= x_41 x_33)) (= x_4 x_0)) (= x_6 x_2)) (= x_44 x_36)) ?v_102))) (or (or (and (and (and (= x_113 0) ?v_108) (or (not (<= x_37 ?v_104)) (= x_41 x_32))) ?v_105) (and (and (and (= x_113 1) ?v_103) (xor x_32 x_40)) (= x_45 ?v_109))) (and (and (and (= x_113 2) ?v_103) (= x_32 x_40)) ?v_105))) (or (or (and (and (and (= x_114 0) (not ?v_106)) (or (not (<= x_39 ?v_98)) (= x_42 x_1))) ?v_107) (and (and (and (= x_114 1) ?v_106) (xor x_1 x_5)) (= x_47 (+ ?v_98 x_115)))) (and (and (and (= x_114 2) ?v_106) (= x_1 x_5)) ?v_107))) (or (or (and (and (and (= x_116 0) ?v_108) (or (not (<= x_107 ?v_104)) (= x_6 x_3))) ?v_111) (and (and (and (= x_116 1) ?v_103) (not ?v_110)) (= x_106 ?v_109))) (and (and (and (= x_116 2) ?v_103) ?v_110) ?v_111))) ?v_112) (not (= x_157 x_154))))))))))))))
(check-sat)
(exit)
